Optimal - objective value -18.00000000
      0 x_0                      0                       0
      1 x_1                      1                       0
      2 x_2                      0                       0
      3 x_3                      1                       0
      4 x_4                      0                       0
      5 x_5                      1                       0
      6 x_6                      1                       0
      7 x_7                      0                       0
      8 x_8                      1                       0
      9 x_9                      0                       0
     10 x_10                     1                       0
     11 x_11                     0                       0
     12 x_12                     0                       0
     13 x_13                     1                       0
     14 x_14                     0                       0
     15 x_15                     1                       0
     16 x_16                     0                       0
     17 x_17                     1                       0
     18 x_18                     1                       0
     19 x_19                     0                       0
     20 x_20                     1                       0
     21 x_21                     0                       0
     22 x_22                     1                       0
     23 x_23                     0                       0
     24 x_24                     0                       0
     25 x_25                     1                       0
     26 x_26                     0                       0
     27 x_27                     1                       0
     28 x_28                     0                       0
     29 x_29                     1                       0
     30 x_30                     1                       0
     31 x_31                     0                       0
     32 x_32                     1                       0
     33 x_33                     0                       0
     34 x_34                     1                       0
     35 x_35                     0                       0
